PROBLEM NAME: 	u159-TTP
KNAPSACK DATA TYPE: uncorrelated
DIMENSION:	159
NUMBER OF ITEMS: 	158
CAPACITY OF KNAPSACK: 	58237
MIN SPEED: 	0.1
MAX SPEED: 	1
RENTING RATIO: 	0.62
EDGE_WEIGHT_TYPE:	CEIL_2D
NODE_COORD_SECTION	(INDEX, X, Y): 
1	3.30000e+03	2.20000e+03
2	3.50000e+03	2.90000e+03
3	3.30000e+03	2.90000e+03
4	3.50000e+03	3.10000e+03
5	3.50000e+03	3.30000e+03
6	3.30000e+03	3.50000e+03
7	3.50000e+03	3.70000e+03
8	3.50000e+03	3.90000e+03
9	3.50000e+03	4.00000e+03
10	3.50000e+03	4.10000e+03
11	3.50000e+03	4.30000e+03
12	3.30000e+03	4.30000e+03
13	3.50000e+03	4.50000e+03
14	3.50000e+03	4.70000e+03
15	3.50000e+03	4.80000e+03
16	3.30000e+03	4.90000e+03
17	3.50000e+03	5.00000e+03
18	3.80000e+03	5.50000e+03
19	3.90000e+03	5.70000e+03
20	3.80000e+03	5.80000e+03
21	3.70000e+03	5.80000e+03
22	3.50000e+03	5.60000e+03
23	3.50000e+03	5.70000e+03
24	3.30000e+03	5.90000e+03
25	3.50000e+03	6.10000e+03
26	3.30000e+03	6.50000e+03
27	3.50000e+03	6.40000e+03
28	3.80000e+03	6.60000e+03
29	4.50000e+03	6.50000e+03
30	4.70000e+03	6.10000e+03
31	4.30000e+03	5.70000e+03
32	4.50000e+03	5.40000e+03
33	5.10000e+03	5.30000e+03
34	5.10000e+03	5.00000e+03
35	5.00000e+03	5.00000e+03
36	5.10000e+03	4.70000e+03
37	5.00000e+03	4.70000e+03
38	5.20000e+03	4.50000e+03
39	5.50000e+03	4.40000e+03
40	5.60000e+03	4.40000e+03
41	5.50000e+03	4.10000e+03
42	5.70000e+03	3.90000e+03
43	5.90000e+03	4.10000e+03
44	6.10000e+03	3.90000e+03
45	6.30000e+03	4.10000e+03
46	6.50000e+03	4.10000e+03
47	6.70000e+03	4.10000e+03
48	6.90000e+03	4.10000e+03
49	7.00000e+03	4.50000e+03
50	7.30000e+03	4.50000e+03
51	7.30000e+03	4.70000e+03
52	7.40000e+03	5.10000e+03
53	7.70000e+03	5.50000e+03
54	7.80000e+03	5.70000e+03
55	7.30000e+03	6.20000e+03
56	7.30000e+03	6.50000e+03
57	7.60000e+03	6.50000e+03
58	7.70000e+03	6.60000e+03
59	8.10000e+03	6.60000e+03
60	8.50000e+03	6.30000e+03
61	8.50000e+03	6.00000e+03
62	8.50000e+03	5.70000e+03
63	8.20000e+03	5.70000e+03
64	8.50000e+03	5.30000e+03
65	8.50000e+03	5.20000e+03
66	8.50000e+03	5.10000e+03
67	8.50000e+03	5.00000e+03
68	8.50000e+03	4.90000e+03
69	8.50000e+03	4.80000e+03
70	8.50000e+03	4.70000e+03
71	8.50000e+03	4.60000e+03
72	8.50000e+03	4.50000e+03
73	8.20000e+03	4.60000e+03
74	7.80000e+03	4.60000e+03
75	7.70000e+03	4.30000e+03
76	8.00000e+03	4.30000e+03
77	8.10000e+03	4.00000e+03
78	8.50000e+03	4.20000e+03
79	8.50000e+03	4.10000e+03
80	8.50000e+03	4.00000e+03
81	8.50000e+03	3.90000e+03
82	8.50000e+03	3.80000e+03
83	8.50000e+03	3.70000e+03
84	8.50000e+03	3.60000e+03
85	8.50000e+03	3.50000e+03
86	8.50000e+03	3.40000e+03
87	8.20000e+03	3.20000e+03
88	8.00000e+03	3.20000e+03
89	7.80000e+03	3.40000e+03
90	7.60000e+03	3.40000e+03
91	7.40000e+03	3.40000e+03
92	7.30000e+03	3.00000e+03
93	7.30000e+03	2.80000e+03
94	7.70000e+03	3.20000e+03
95	8.00000e+03	2.90000e+03
96	8.10000e+03	3.00000e+03
97	8.50000e+03	3.10000e+03
98	8.50000e+03	3.00000e+03
99	8.50000e+03	2.90000e+03
100	8.50000e+03	2.80000e+03
101	8.50000e+03	2.70000e+03
102	8.50000e+03	2.60000e+03
103	8.50000e+03	2.50000e+03
104	8.50000e+03	2.40000e+03
105	8.50000e+03	2.30000e+03
106	8.20000e+03	2.10000e+03
107	7.80000e+03	2.10000e+03
108	6.90000e+03	2.20000e+03
109	6.70000e+03	2.30000e+03
110	6.50000e+03	2.30000e+03
111	6.30000e+03	2.30000e+03
112	6.10000e+03	2.30000e+03
113	5.90000e+03	2.30000e+03
114	5.90000e+03	2.90000e+03
115	6.10000e+03	2.90000e+03
116	6.30000e+03	2.90000e+03
117	6.50000e+03	2.90000e+03
118	6.70000e+03	2.90000e+03
119	6.70000e+03	3.50000e+03
120	6.50000e+03	3.50000e+03
121	6.30000e+03	3.50000e+03
122	6.10000e+03	3.50000e+03
123	5.90000e+03	3.50000e+03
124	5.30000e+03	2.80000e+03
125	4.70000e+03	2.10000e+03
126	4.30000e+03	2.60000e+03
127	4.70000e+03	2.90000e+03
128	5.00000e+03	3.10000e+03
129	5.10000e+03	2.90000e+03
130	5.30000e+03	3.10000e+03
131	5.00000e+03	3.40000e+03
132	5.20000e+03	3.70000e+03
133	5.00000e+03	3.90000e+03
134	5.10000e+03	3.90000e+03
135	5.10000e+03	4.20000e+03
136	5.00000e+03	4.20000e+03
137	4.70000e+03	4.40000e+03
138	4.70000e+03	4.70000e+03
139	4.30000e+03	4.40000e+03
140	4.30000e+03	4.60000e+03
141	4.10000e+03	4.40000e+03
142	3.90000e+03	4.60000e+03
143	3.70000e+03	4.40000e+03
144	3.70000e+03	4.30000e+03
145	3.80000e+03	4.30000e+03
146	3.70000e+03	4.10000e+03
147	3.70000e+03	4.00000e+03
148	3.70000e+03	3.90000e+03
149	3.80000e+03	4.00000e+03
150	3.90000e+03	3.80000e+03
151	3.70000e+03	3.70000e+03
152	3.50000e+03	3.60000e+03
153	3.50000e+03	3.50000e+03
154	3.70000e+03	3.50000e+03
155	3.80000e+03	3.50000e+03
156	3.70000e+03	3.20000e+03
157	3.80000e+03	3.20000e+03
158	3.90000e+03	3.00000e+03
159	3.50000e+03	2.40000e+03
ITEMS SECTION	(INDEX, PROFIT, WEIGHT, ASSIGNED NODE NUMBER): 
1	119	1	2
2	187	896	3
3	997	367	4
4	22	690	5
5	347	613	6
6	522	874	7
7	730	122	8
8	705	486	9
9	232	823	10
10	554	463	11
11	675	589	12
12	970	325	13
13	407	1000	14
14	276	776	15
15	331	123	16
16	361	356	17
17	798	305	18
18	427	47	19
19	439	645	20
20	91	139	21
21	650	247	22
22	10	211	23
23	838	100	24
24	725	627	25
25	843	760	26
26	137	776	27
27	977	475	28
28	718	937	29
29	99	101	30
30	609	281	31
31	819	751	32
32	97	530	33
33	975	240	34
34	226	248	35
35	241	768	36
36	584	31	37
37	348	613	38
38	475	881	39
39	178	367	40
40	641	712	41
41	898	410	42
42	250	157	43
43	391	824	44
44	101	242	45
45	636	472	46
46	87	722	47
47	652	775	48
48	867	371	49
49	54	337	50
50	509	885	51
51	989	204	52
52	129	594	53
53	597	226	54
54	513	226	55
55	201	921	56
56	227	537	57
57	82	112	58
58	296	959	59
59	802	392	60
60	537	709	61
61	943	940	62
62	997	943	63
63	642	79	64
64	205	922	65
65	551	361	66
66	904	947	67
67	400	861	68
68	250	937	69
69	586	754	70
70	631	872	71
71	752	636	72
72	510	459	73
73	542	390	74
74	576	141	75
75	550	111	76
76	504	588	77
77	702	6	78
78	20	155	79
79	179	723	80
80	770	723	81
81	95	667	82
82	598	829	83
83	885	487	84
84	239	590	85
85	37	370	86
86	898	823	87
87	923	173	88
88	261	56	89
89	786	977	90
90	46	681	91
91	438	689	92
92	116	933	93
93	503	809	94
94	603	587	95
95	194	686	96
96	341	466	97
97	545	356	98
98	52	784	99
99	810	862	100
100	260	223	101
101	197	541	102
102	213	61	103
103	462	416	104
104	62	62	105
105	203	205	106
106	269	152	107
107	160	913	108
108	747	267	109
109	174	249	110
110	700	187	111
111	114	174	112
112	412	939	113
113	905	519	114
114	109	56	115
115	369	381	116
116	525	551	117
117	987	128	118
118	660	812	119
119	149	753	120
120	764	544	121
121	396	684	122
122	905	830	123
123	30	725	124
124	384	330	125
125	981	115	126
126	483	38	127
127	176	445	128
128	570	619	129
129	891	648	130
130	446	896	131
131	567	658	132
132	646	306	133
133	229	806	134
134	893	800	135
135	723	612	136
136	771	354	137
137	329	300	138
138	279	174	139
139	253	751	140
140	262	126	141
141	802	603	142
142	861	665	143
143	127	209	144
144	131	308	145
145	460	308	146
146	290	677	147
147	296	863	148
148	172	292	149
149	158	444	150
150	241	295	151
151	301	413	152
152	958	72	153
153	694	321	154
154	594	981	155
155	145	797	156
156	819	507	157
157	672	715	158
158	638	512	159
